NAME : portcgen-19-8
COMMENT : portcgen N=19, seed=8
TYPE : TSP
DIMENSION : 19
EDGE_WEIGHT_TYPE : EUC_2D
NODE_COORD_SECTION
1 -217605 13222
2 148852 148060
3 8793 -362096
4 -52089 -73835
5 -402997 135387
6 -17119 34735
7 -48790 -38247
8 173259 -199569
9 152367 -268236
10 121557 88647
11 58045 30431
12 109413 -161441
13 -94519 1608
14 -80468 167323
15 -120695 451404
16 -200337 341023
17 -281090 236011
18 -55074 163716
19 58009 -344029
